
  32    4
  10   10   10   10

   0   0   0   0   0   2 2 31 
   7  10  10  10  10   1 3 
   9  10  10  10  10   1 4 
   1  10  10  10  10   1 5 
   2  10  10  10  10   1 6 
  10  10  10  10  10   1 7 
   6  10  10  10  10   1 8 
   7  10  10  10  10   3 14 12 9 
   7  10  10  10  10   2 21 10 
   9  10  10  10  10   1 11 
   7  10  10  10  10   2 30 13 
   7  10  10  10  10   2 21 17 
   5  10  10  10  10   1 15 
   2  10  10  10  10   1 15 
   1  10  10  10  10   1 16 
   1  10  10  10  10   1 17 
   7  10  10  10  10   1 18 
   2  10  10  10  10   1 19 
   3  10  10  10  10   1 20 
   6  10  10  10  10   1 22 
   4  10  10  10  10   2 30 24 
   5  10  10  10  10   1 23 
   8  10  10  10  10   1 24 
   4  10  10  10  10   1 25 
   4  10  10  10  10   2 29 26 
   9  10  10  10  10   1 27 
   6  10  10  10  10   1 28 
   4  10  10  10  10   1 32
  10  10  10  10  10   1 32
   3  10  10  10  10   1 32
  10  10  10  10  10   1 32
   0   0   0   0   0   0 
